%mem=3500MB
#p B3LYP/6-311+G** NMR=SPINSPIN

empty

0 1
1     -1.140054  -1.051966   0.886820
6     -1.173400  -0.410580   0.000000
1     -1.140054  -1.051966  -0.886820
1     -2.122729   0.136564   0.000000
6      0.000000   0.555061   0.000000
1     -0.050889   1.207159  -0.887574
1     -0.050889   1.207159   0.887574
8      1.199660  -0.214433   0.000000
1      1.947734   0.401631   0.000000

