%mem=13500MB
%nproc=6
#p B3LYP/6-311+G** NMR=SPINSPIN

empty

0 1
6      4.515349   0.006803  -0.625466
6      3.587500   1.110614  -0.322767
6      2.347790   0.948107   0.185783
6      1.714610  -0.429448   0.413839
6      2.514228  -1.509852  -0.363638
6      4.035658  -1.380890  -0.233625
1      3.988860   2.108488  -0.489567
1      2.205419  -2.507736  -0.034539
1      2.251767  -1.436537  -1.428143
1      4.354221  -1.559153   0.803791
1      4.556583  -2.119469  -0.851000
6      1.763270  -0.737822   1.934340
1      1.168458  -0.029858   2.519602
1      1.387927  -1.744333   2.144858
1      2.791459  -0.683536   2.306579
6      0.235836  -0.407594  -0.136804
1      0.337109  -0.259712  -1.225019
6      1.533637   2.151626   0.595135
6     -0.602552   0.808055   0.361369
1     -0.709423   0.757148   1.455239
6      0.111365   2.121566   0.017625
1     -0.456535   2.978754   0.399287
1      0.158974   2.234224  -1.075318
6     -0.505494  -1.755509   0.057979
1      0.059588  -2.559527  -0.425274
1     -0.539890  -2.009946   1.123738
6     -1.994573   0.727555  -0.278086
1     -1.824743   0.703296  -1.369532
6     -1.943410  -1.765779  -0.504437
1     -1.912361  -1.694148  -1.600200
1     -2.433249  -2.718136  -0.269748
6     -2.744050  -0.584364   0.051017
6     -3.053392  -0.778549   1.559337
1     -3.630259   0.052203   1.979685
1     -3.646639  -1.690160   1.689261
1     -2.143086  -0.878889   2.156956
6     -3.042279   1.837331  -0.046710
1     -2.778822   2.775411  -0.544486
1     -3.153601   2.059776   1.021309
6     -4.333302   1.209901  -0.623558
1     -5.247736   1.466116  -0.077588
1     -4.501016   1.508478  -1.666000
8      5.620058   0.206720  -1.111909
8     -4.871741  -1.148581  -1.033850
6     -4.104475  -0.315139  -0.603694
1      2.054349   3.069975   0.302588
1      1.461826   2.172493   1.693768

